;; translated from ./ctigar/nested7.c.vmt
;; original benchmark available at: https://es-static.fbk.eu/people/griggio/ic3ia/index.html
;; author: Alberto Griggio <griggio@fbk.eu>
(set-logic HORN)
(declare-fun state (Bool Bool Bool Bool Bool Bool Int Int Int Int Int Int) Bool)
(assert (forall ((|.s.3| Bool) (|.s.4| Bool) (|.s.2| Bool) (|.s.0| Bool) (|.s.1| Bool) (|.s.0.next| Bool) (|.s.1.next| Bool) (|.s.2.next| Bool) (|.s.3.next| Bool) (|.s.4.next| Bool) (|.s.5.next| Bool) (|main.i.next| Int) (|main.i| Int) (|main.j.next| Int) (|main.j| Int) (|main.k.next| Int) (|main.k| Int) (|main.l.next| Int) (|main.l| Int) (|main.m.next| Int) (|main.m| Int) (|main.n.next| Int) (|main.n| Int) (|.inputVar.0| Int) (|.s.5| Bool)) (=> (let ((.def_23 (not .s.5)))
(let ((.def_20 (not .s.4)))
(let ((.def_17 (not .s.3)))
(let ((.def_14 (not .s.2)))
(let ((.def_10 (not .s.1)))
(let ((.def_12 (and .def_10 .s.0)))
(let ((.def_15 (and .def_12 .def_14)))
(let ((.def_18 (and .def_15 .def_17)))
(let ((.def_21 (and .def_18 .def_20)))
(let ((.def_24 (and .def_21 .def_23)))
.def_24)))))))))) (state |.s.1| |.s.0| |.s.2| |.s.3| |.s.4| |.s.5| |main.i| |main.j| |main.k| |main.l| |main.m| |main.n|))))
(assert (forall ((|.s.3| Bool) (|.s.4| Bool) (|.s.2| Bool) (|.s.0| Bool) (|.s.1| Bool) (|.s.0.next| Bool) (|.s.1.next| Bool) (|.s.2.next| Bool) (|.s.3.next| Bool) (|.s.4.next| Bool) (|.s.5.next| Bool) (|main.i.next| Int) (|main.i| Int) (|main.j.next| Int) (|main.j| Int) (|main.k.next| Int) (|main.k| Int) (|main.l.next| Int) (|main.l| Int) (|main.m.next| Int) (|main.m| Int) (|main.n.next| Int) (|main.n| Int) (|.inputVar.0| Int) (|.s.5| Bool)) (=> (and (state |.s.1| |.s.0| |.s.2| |.s.3| |.s.4| |.s.5| |main.i| |main.j| |main.k| |main.l| |main.m| |main.n|) (let ((.def_69 (not .s.0)))
(let ((.def_10 (not .s.1)))
(let ((.def_108 (and .def_10 .def_69)))
(let ((.def_14 (not .s.2)))
(let ((.def_109 (and .def_14 .def_108)))
(let ((.def_17 (not .s.3)))
(let ((.def_264 (and .def_17 .def_109)))
(let ((.def_20 (not .s.4)))
(let ((.def_265 (and .def_20 .def_264)))
(let ((.def_23 (not .s.5)))
(let ((.def_734 (and .def_23 .def_265)))
(let ((.def_735 (not .def_734)))
(let ((.def_79 (not .s.0.next)))
(let ((.def_78 (not .s.1.next)))
(let ((.def_80 (and .def_78 .def_79)))
(let ((.def_35 (not .s.2.next)))
(let ((.def_81 (and .def_35 .def_80)))
(let ((.def_77 (not .s.3.next)))
(let ((.def_82 (and .def_77 .def_81)))
(let ((.def_40 (not .s.4.next)))
(let ((.def_83 (and .def_40 .def_82)))
(let ((.def_76 (not .s.5.next)))
(let ((.def_84 (and .def_76 .def_83)))
(let ((.def_46 (= main.i main.i.next)))
(let ((.def_85 (and .def_46 .def_84)))
(let ((.def_50 (= main.j main.j.next)))
(let ((.def_86 (and .def_50 .def_85)))
(let ((.def_54 (= main.k main.k.next)))
(let ((.def_87 (and .def_54 .def_86)))
(let ((.def_58 (= main.l main.l.next)))
(let ((.def_88 (and .def_58 .def_87)))
(let ((.def_62 (= main.m main.m.next)))
(let ((.def_89 (and .def_62 .def_88)))
(let ((.def_66 (= main.n main.n.next)))
(let ((.def_90 (and .def_66 .def_89)))
(let ((.def_736 (or .def_90 .def_735)))
(let ((.def_96 (and .s.1.next .def_79)))
(let ((.def_97 (and .def_35 .def_96)))
(let ((.def_178 (and .def_77 .def_97)))
(let ((.def_179 (and .def_40 .def_178)))
(let ((.def_726 (and .def_76 .def_179)))
(let ((.def_727 (and .def_46 .def_726)))
(let ((.def_728 (and .def_50 .def_727)))
(let ((.def_729 (and .def_54 .def_728)))
(let ((.def_730 (and .def_58 .def_729)))
(let ((.def_731 (and .def_62 .def_730)))
(let ((.def_732 (and .def_66 .def_731)))
(let ((.def_115 (* (- 1) main.n)))
(let ((.def_116 (* (- 1) main.k)))
(let ((.def_120 (+ .def_116 .def_115)))
(let ((.def_121 (+ main.j .def_120)))
(let ((.def_122 (<= .def_121 0)))
(let ((.def_137 (not .def_122)))
(let ((.def_12 (and .def_10 .s.0)))
(let ((.def_15 (and .def_12 .def_14)))
(let ((.def_18 (and .def_15 .def_17)))
(let ((.def_21 (and .def_18 .def_20)))
(let ((.def_24 (and .def_21 .def_23)))
(let ((.def_724 (and .def_24 .def_137)))
(let ((.def_725 (not .def_724)))
(let ((.def_733 (or .def_725 .def_732)))
(let ((.def_737 (and .def_733 .def_736)))
(let ((.def_33 (and .s.0.next .s.1.next)))
(let ((.def_36 (and .def_33 .def_35)))
(let ((.def_244 (and .def_36 .def_77)))
(let ((.def_245 (and .def_40 .def_244)))
(let ((.def_716 (and .def_76 .def_245)))
(let ((.def_717 (and .def_46 .def_716)))
(let ((.def_718 (and .def_50 .def_717)))
(let ((.def_719 (and .def_54 .def_718)))
(let ((.def_720 (and .def_58 .def_719)))
(let ((.def_721 (and .def_62 .def_720)))
(let ((.def_722 (and .def_66 .def_721)))
(let ((.def_714 (and .def_24 .def_122)))
(let ((.def_715 (not .def_714)))
(let ((.def_723 (or .def_715 .def_722)))
(let ((.def_738 (and .def_723 .def_737)))
(let ((.def_70 (and .s.1 .def_69)))
(let ((.def_71 (and .def_14 .def_70)))
(let ((.def_225 (and .def_17 .def_71)))
(let ((.def_226 (and .def_20 .def_225)))
(let ((.def_711 (and .def_23 .def_226)))
(let ((.def_712 (not .def_711)))
(let ((.def_713 (or .def_90 .def_712)))
(let ((.def_739 (and .def_713 .def_738)))
(let ((.def_671 (= main.i.next 0)))
(let ((.def_214 (and .s.2.next .def_80)))
(let ((.def_215 (and .def_77 .def_214)))
(let ((.def_216 (and .def_40 .def_215)))
(let ((.def_288 (and .def_76 .def_216)))
(let ((.def_704 (and .def_288 .def_671)))
(let ((.def_705 (and .def_50 .def_704)))
(let ((.def_706 (and .def_54 .def_705)))
(let ((.def_707 (and .def_58 .def_706)))
(let ((.def_708 (and .def_62 .def_707)))
(let ((.def_709 (and .def_66 .def_708)))
(let ((.def_25 (and .s.1 .s.0)))
(let ((.def_26 (and .def_14 .def_25)))
(let ((.def_207 (and .def_17 .def_26)))
(let ((.def_208 (and .def_20 .def_207)))
(let ((.def_702 (and .def_23 .def_208)))
(let ((.def_703 (not .def_702)))
(let ((.def_710 (or .def_703 .def_709)))
(let ((.def_740 (and .def_710 .def_739)))
(let ((.def_409 (and .s.3.next .def_81)))
(let ((.def_636 (and .def_40 .def_409)))
(let ((.def_694 (and .s.5.next .def_636)))
(let ((.def_695 (and .def_46 .def_694)))
(let ((.def_696 (and .def_50 .def_695)))
(let ((.def_697 (and .def_54 .def_696)))
(let ((.def_698 (and .def_58 .def_697)))
(let ((.def_699 (and .def_62 .def_698)))
(let ((.def_700 (and .def_66 .def_699)))
(let ((.def_680 (<= main.n main.i)))
(let ((.def_188 (and .s.2 .def_108)))
(let ((.def_189 (and .def_17 .def_188)))
(let ((.def_190 (and .def_20 .def_189)))
(let ((.def_679 (and .def_23 .def_190)))
(let ((.def_692 (and .def_679 .def_680)))
(let ((.def_693 (not .def_692)))
(let ((.def_701 (or .def_693 .def_700)))
(let ((.def_741 (and .def_701 .def_740)))
(let ((.def_125 (and .s.0.next .def_78)))
(let ((.def_193 (and .s.2.next .def_125)))
(let ((.def_194 (and .def_77 .def_193)))
(let ((.def_195 (and .def_40 .def_194)))
(let ((.def_684 (and .def_76 .def_195)))
(let ((.def_685 (and .def_46 .def_684)))
(let ((.def_686 (and .def_50 .def_685)))
(let ((.def_687 (and .def_54 .def_686)))
(let ((.def_688 (and .def_58 .def_687)))
(let ((.def_689 (and .def_62 .def_688)))
(let ((.def_690 (and .def_66 .def_689)))
(let ((.def_681 (not .def_680)))
(let ((.def_682 (and .def_679 .def_681)))
(let ((.def_683 (not .def_682)))
(let ((.def_691 (or .def_683 .def_690)))
(let ((.def_742 (and .def_691 .def_741)))
(let ((.def_146 (and .s.2.next .def_96)))
(let ((.def_231 (and .def_77 .def_146)))
(let ((.def_232 (and .def_40 .def_231)))
(let ((.def_519 (and .def_76 .def_232)))
(let ((.def_672 (and .def_519 .def_671)))
(let ((.def_673 (and .def_50 .def_672)))
(let ((.def_674 (and .def_54 .def_673)))
(let ((.def_675 (and .def_58 .def_674)))
(let ((.def_676 (and .def_62 .def_675)))
(let ((.def_677 (and .def_66 .def_676)))
(let ((.def_173 (and .def_12 .s.2)))
(let ((.def_174 (and .def_17 .def_173)))
(let ((.def_175 (and .def_20 .def_174)))
(let ((.def_669 (and .def_23 .def_175)))
(let ((.def_670 (not .def_669)))
(let ((.def_678 (or .def_670 .def_677)))
(let ((.def_743 (and .def_678 .def_742)))
(let ((.def_126 (and .def_35 .def_125)))
(let ((.def_271 (and .def_77 .def_126)))
(let ((.def_660 (and .s.4.next .def_271)))
(let ((.def_661 (and .def_76 .def_660)))
(let ((.def_662 (and .def_46 .def_661)))
(let ((.def_663 (and .def_50 .def_662)))
(let ((.def_664 (and .def_54 .def_663)))
(let ((.def_665 (and .def_58 .def_664)))
(let ((.def_666 (and .def_62 .def_665)))
(let ((.def_667 (and .def_66 .def_666)))
(let ((.def_646 (<= main.m main.i)))
(let ((.def_157 (and .s.2 .def_70)))
(let ((.def_158 (and .def_17 .def_157)))
(let ((.def_159 (and .def_20 .def_158)))
(let ((.def_645 (and .def_23 .def_159)))
(let ((.def_658 (and .def_645 .def_646)))
(let ((.def_659 (not .def_658)))
(let ((.def_668 (or .def_659 .def_667)))
(let ((.def_744 (and .def_668 .def_743)))
(let ((.def_162 (and .def_33 .s.2.next)))
(let ((.def_163 (and .def_77 .def_162)))
(let ((.def_164 (and .def_40 .def_163)))
(let ((.def_650 (and .def_76 .def_164)))
(let ((.def_651 (and .def_46 .def_650)))
(let ((.def_652 (and .def_50 .def_651)))
(let ((.def_653 (and .def_54 .def_652)))
(let ((.def_654 (and .def_58 .def_653)))
(let ((.def_655 (and .def_62 .def_654)))
(let ((.def_656 (and .def_66 .def_655)))
(let ((.def_647 (not .def_646)))
(let ((.def_648 (and .def_645 .def_647)))
(let ((.def_649 (not .def_648)))
(let ((.def_657 (or .def_649 .def_656)))
(let ((.def_745 (and .def_657 .def_744)))
(let ((.def_637 (and .def_76 .def_636)))
(let ((.def_635 (= main.j.next main.k)))
(let ((.def_638 (and .def_635 .def_637)))
(let ((.def_639 (and .def_46 .def_638)))
(let ((.def_640 (and .def_54 .def_639)))
(let ((.def_641 (and .def_58 .def_640)))
(let ((.def_642 (and .def_62 .def_641)))
(let ((.def_643 (and .def_66 .def_642)))
(let ((.def_141 (and .s.2 .def_25)))
(let ((.def_142 (and .def_17 .def_141)))
(let ((.def_143 (and .def_20 .def_142)))
(let ((.def_633 (and .def_23 .def_143)))
(let ((.def_634 (not .def_633)))
(let ((.def_644 (or .def_634 .def_643)))
(let ((.def_746 (and .def_644 .def_745)))
(let ((.def_618 (= .inputVar.0 0)))
(let ((.def_629 (not .def_618)))
(let ((.def_110 (and .s.3 .def_109)))
(let ((.def_111 (and .def_20 .def_110)))
(let ((.def_616 (and .def_23 .def_111)))
(let ((.def_630 (and .def_616 .def_629)))
(let ((.def_631 (not .def_630)))
(let ((.def_300 (and .s.3.next .def_162)))
(let ((.def_542 (and .def_40 .def_300)))
(let ((.def_543 (and .def_76 .def_542)))
(let ((.def_544 (and .def_46 .def_543)))
(let ((.def_545 (and .def_50 .def_544)))
(let ((.def_546 (and .def_54 .def_545)))
(let ((.def_547 (and .def_58 .def_546)))
(let ((.def_548 (and .def_62 .def_547)))
(let ((.def_549 (and .def_66 .def_548)))
(let ((.def_632 (or .def_549 .def_631)))
(let ((.def_747 (and .def_632 .def_746)))
(let ((.def_127 (and .s.3.next .def_126)))
(let ((.def_128 (and .def_40 .def_127)))
(let ((.def_621 (and .def_76 .def_128)))
(let ((.def_622 (and .def_46 .def_621)))
(let ((.def_623 (and .def_50 .def_622)))
(let ((.def_624 (and .def_54 .def_623)))
(let ((.def_625 (and .def_58 .def_624)))
(let ((.def_626 (and .def_62 .def_625)))
(let ((.def_627 (and .def_66 .def_626)))
(let ((.def_619 (and .def_616 .def_618)))
(let ((.def_620 (not .def_619)))
(let ((.def_628 (or .def_620 .def_627)))
(let ((.def_748 (and .def_628 .def_747)))
(let ((.def_98 (and .s.3.next .def_97)))
(let ((.def_99 (and .def_40 .def_98)))
(let ((.def_554 (and .def_76 .def_99)))
(let ((.def_256 (= main.l.next 0)))
(let ((.def_609 (and .def_256 .def_554)))
(let ((.def_610 (and .def_46 .def_609)))
(let ((.def_611 (and .def_50 .def_610)))
(let ((.def_612 (and .def_54 .def_611)))
(let ((.def_613 (and .def_62 .def_612)))
(let ((.def_614 (and .def_66 .def_613)))
(let ((.def_92 (and .def_15 .s.3)))
(let ((.def_93 (and .def_20 .def_92)))
(let ((.def_607 (and .def_23 .def_93)))
(let ((.def_608 (not .def_607)))
(let ((.def_615 (or .def_608 .def_614)))
(let ((.def_749 (and .def_615 .def_748)))
(let ((.def_38 (and .def_36 .s.3.next)))
(let ((.def_41 (and .def_38 .def_40)))
(let ((.def_599 (and .def_41 .def_76)))
(let ((.def_600 (and .def_46 .def_599)))
(let ((.def_601 (and .def_50 .def_600)))
(let ((.def_602 (and .def_54 .def_601)))
(let ((.def_603 (and .def_58 .def_602)))
(let ((.def_604 (and .def_62 .def_603)))
(let ((.def_605 (and .def_66 .def_604)))
(let ((.def_72 (and .s.3 .def_71)))
(let ((.def_73 (and .def_20 .def_72)))
(let ((.def_585 (and .def_23 .def_73)))
(let ((.def_228 (<= main.n main.l)))
(let ((.def_241 (not .def_228)))
(let ((.def_597 (and .def_241 .def_585)))
(let ((.def_598 (not .def_597)))
(let ((.def_606 (or .def_598 .def_605)))
(let ((.def_750 (and .def_606 .def_749)))
(let ((.def_147 (and .s.3.next .def_146)))
(let ((.def_588 (and .def_40 .def_147)))
(let ((.def_589 (and .def_76 .def_588)))
(let ((.def_590 (and .def_46 .def_589)))
(let ((.def_591 (and .def_50 .def_590)))
(let ((.def_592 (and .def_54 .def_591)))
(let ((.def_593 (and .def_58 .def_592)))
(let ((.def_594 (and .def_62 .def_593)))
(let ((.def_595 (and .def_66 .def_594)))
(let ((.def_586 (and .def_228 .def_585)))
(let ((.def_587 (not .def_586)))
(let ((.def_596 (or .def_587 .def_595)))
(let ((.def_751 (and .def_596 .def_750)))
(let ((.def_382 (and .s.3.next .def_214)))
(let ((.def_576 (and .def_40 .def_382)))
(let ((.def_577 (and .def_76 .def_576)))
(let ((.def_211 (* (- 1) main.j.next)))
(let ((.def_212 (+ main.j .def_211)))
(let ((.def_357 (= .def_212 (- 1))))
(let ((.def_578 (and .def_357 .def_577)))
(let ((.def_579 (and .def_46 .def_578)))
(let ((.def_580 (and .def_54 .def_579)))
(let ((.def_581 (and .def_58 .def_580)))
(let ((.def_582 (and .def_62 .def_581)))
(let ((.def_583 (and .def_66 .def_582)))
(let ((.def_27 (and .s.3 .def_26)))
(let ((.def_28 (and .def_20 .def_27)))
(let ((.def_574 (and .def_23 .def_28)))
(let ((.def_575 (not .def_574)))
(let ((.def_584 (or .def_575 .def_583)))
(let ((.def_752 (and .def_584 .def_751)))
(let ((.def_330 (and .s.3.next .def_193)))
(let ((.def_565 (and .def_40 .def_330)))
(let ((.def_566 (and .def_76 .def_565)))
(let ((.def_197 (* (- 1) main.l.next)))
(let ((.def_198 (+ main.l .def_197)))
(let ((.def_199 (= .def_198 (- 1))))
(let ((.def_567 (and .def_199 .def_566)))
(let ((.def_568 (and .def_46 .def_567)))
(let ((.def_569 (and .def_50 .def_568)))
(let ((.def_570 (and .def_54 .def_569)))
(let ((.def_571 (and .def_62 .def_570)))
(let ((.def_572 (and .def_66 .def_571)))
(let ((.def_326 (and .s.3 .def_188)))
(let ((.def_562 (and .def_20 .def_326)))
(let ((.def_563 (and .def_23 .def_562)))
(let ((.def_564 (not .def_563)))
(let ((.def_573 (or .def_564 .def_572)))
(let ((.def_753 (and .def_573 .def_752)))
(let ((.def_555 (and .def_46 .def_554)))
(let ((.def_556 (and .def_50 .def_555)))
(let ((.def_557 (and .def_54 .def_556)))
(let ((.def_558 (and .def_58 .def_557)))
(let ((.def_559 (and .def_62 .def_558)))
(let ((.def_560 (and .def_66 .def_559)))
(let ((.def_313 (and .s.3 .def_173)))
(let ((.def_551 (and .def_20 .def_313)))
(let ((.def_552 (and .def_23 .def_551)))
(let ((.def_553 (not .def_552)))
(let ((.def_561 (or .def_553 .def_560)))
(let ((.def_754 (and .def_561 .def_753)))
(let ((.def_296 (and .s.3 .def_157)))
(let ((.def_539 (and .def_20 .def_296)))
(let ((.def_540 (and .def_23 .def_539)))
(let ((.def_541 (not .def_540)))
(let ((.def_550 (or .def_541 .def_549)))
(let ((.def_755 (and .def_550 .def_754)))
(let ((.def_530 (and .s.4.next .def_82)))
(let ((.def_531 (and .def_76 .def_530)))
(let ((.def_303 (* (- 1) main.i.next)))
(let ((.def_304 (+ main.i .def_303)))
(let ((.def_305 (= .def_304 (- 1))))
(let ((.def_532 (and .def_305 .def_531)))
(let ((.def_533 (and .def_50 .def_532)))
(let ((.def_534 (and .def_54 .def_533)))
(let ((.def_535 (and .def_58 .def_534)))
(let ((.def_536 (and .def_62 .def_535)))
(let ((.def_537 (and .def_66 .def_536)))
(let ((.def_284 (and .s.3 .def_141)))
(let ((.def_527 (and .def_20 .def_284)))
(let ((.def_528 (and .def_23 .def_527)))
(let ((.def_529 (not .def_528)))
(let ((.def_538 (or .def_529 .def_537)))
(let ((.def_756 (and .def_538 .def_755)))
(let ((.def_520 (and .def_46 .def_519)))
(let ((.def_521 (and .def_50 .def_520)))
(let ((.def_522 (and .def_54 .def_521)))
(let ((.def_523 (and .def_58 .def_522)))
(let ((.def_524 (and .def_62 .def_523)))
(let ((.def_525 (and .def_66 .def_524)))
(let ((.def_516 (and .s.4 .def_264)))
(let ((.def_517 (and .def_23 .def_516)))
(let ((.def_518 (not .def_517)))
(let ((.def_526 (or .def_518 .def_525)))
(let ((.def_757 (and .def_526 .def_756)))
(let ((.def_508 (and .s.5.next .def_83)))
(let ((.def_509 (and .def_46 .def_508)))
(let ((.def_510 (and .def_50 .def_509)))
(let ((.def_511 (and .def_54 .def_510)))
(let ((.def_512 (and .def_58 .def_511)))
(let ((.def_513 (and .def_62 .def_512)))
(let ((.def_514 (and .def_66 .def_513)))
(let ((.def_493 (<= main.k 5)))
(let ((.def_490 (and .def_18 .s.4)))
(let ((.def_491 (and .def_23 .def_490)))
(let ((.def_506 (and .def_491 .def_493)))
(let ((.def_507 (not .def_506)))
(let ((.def_515 (or .def_507 .def_514)))
(let ((.def_758 (and .def_515 .def_757)))
(let ((.def_497 (and .s.4.next .def_178)))
(let ((.def_498 (and .def_76 .def_497)))
(let ((.def_499 (and .def_46 .def_498)))
(let ((.def_500 (and .def_50 .def_499)))
(let ((.def_501 (and .def_54 .def_500)))
(let ((.def_502 (and .def_58 .def_501)))
(let ((.def_503 (and .def_62 .def_502)))
(let ((.def_504 (and .def_66 .def_503)))
(let ((.def_494 (not .def_493)))
(let ((.def_495 (and .def_491 .def_494)))
(let ((.def_496 (not .def_495)))
(let ((.def_505 (or .def_496 .def_504)))
(let ((.def_759 (and .def_505 .def_758)))
(let ((.def_435 (and .s.4.next .def_244)))
(let ((.def_436 (and .def_76 .def_435)))
(let ((.def_483 (and .def_256 .def_436)))
(let ((.def_484 (and .def_46 .def_483)))
(let ((.def_485 (and .def_50 .def_484)))
(let ((.def_486 (and .def_54 .def_485)))
(let ((.def_487 (and .def_62 .def_486)))
(let ((.def_488 (and .def_66 .def_487)))
(let ((.def_480 (and .s.4 .def_225)))
(let ((.def_481 (and .def_23 .def_480)))
(let ((.def_482 (not .def_481)))
(let ((.def_489 (or .def_482 .def_488)))
(let ((.def_760 (and .def_489 .def_759)))
(let ((.def_471 (and .s.4.next .def_231)))
(let ((.def_472 (and .def_76 .def_471)))
(let ((.def_473 (and .def_46 .def_472)))
(let ((.def_474 (and .def_50 .def_473)))
(let ((.def_475 (and .def_54 .def_474)))
(let ((.def_476 (and .def_58 .def_475)))
(let ((.def_477 (and .def_62 .def_476)))
(let ((.def_478 (and .def_66 .def_477)))
(let ((.def_456 (and .s.4 .def_207)))
(let ((.def_457 (and .def_23 .def_456)))
(let ((.def_405 (<= main.m main.l)))
(let ((.def_469 (and .def_405 .def_457)))
(let ((.def_470 (not .def_469)))
(let ((.def_479 (or .def_470 .def_478)))
(let ((.def_761 (and .def_479 .def_760)))
(let ((.def_460 (and .s.4.next .def_215)))
(let ((.def_461 (and .def_76 .def_460)))
(let ((.def_462 (and .def_46 .def_461)))
(let ((.def_463 (and .def_50 .def_462)))
(let ((.def_464 (and .def_54 .def_463)))
(let ((.def_465 (and .def_58 .def_464)))
(let ((.def_466 (and .def_62 .def_465)))
(let ((.def_467 (and .def_66 .def_466)))
(let ((.def_406 (not .def_405)))
(let ((.def_458 (and .def_406 .def_457)))
(let ((.def_459 (not .def_458)))
(let ((.def_468 (or .def_459 .def_467)))
(let ((.def_762 (and .def_468 .def_761)))
(let ((.def_447 (and .s.4.next .def_194)))
(let ((.def_448 (and .def_76 .def_447)))
(let ((.def_449 (and .def_199 .def_448)))
(let ((.def_450 (and .def_46 .def_449)))
(let ((.def_451 (and .def_50 .def_450)))
(let ((.def_452 (and .def_54 .def_451)))
(let ((.def_453 (and .def_62 .def_452)))
(let ((.def_454 (and .def_66 .def_453)))
(let ((.def_444 (and .s.4 .def_189)))
(let ((.def_445 (and .def_23 .def_444)))
(let ((.def_446 (not .def_445)))
(let ((.def_455 (or .def_446 .def_454)))
(let ((.def_763 (and .def_455 .def_762)))
(let ((.def_437 (and .def_46 .def_436)))
(let ((.def_438 (and .def_50 .def_437)))
(let ((.def_439 (and .def_54 .def_438)))
(let ((.def_440 (and .def_58 .def_439)))
(let ((.def_441 (and .def_62 .def_440)))
(let ((.def_442 (and .def_66 .def_441)))
(let ((.def_432 (and .s.4 .def_174)))
(let ((.def_433 (and .def_23 .def_432)))
(let ((.def_434 (not .def_433)))
(let ((.def_443 (or .def_434 .def_442)))
(let ((.def_764 (and .def_443 .def_763)))
(let ((.def_317 (and .s.4.next .def_163)))
(let ((.def_318 (and .def_76 .def_317)))
(let ((.def_425 (and .def_256 .def_318)))
(let ((.def_426 (and .def_46 .def_425)))
(let ((.def_427 (and .def_50 .def_426)))
(let ((.def_428 (and .def_54 .def_427)))
(let ((.def_429 (and .def_62 .def_428)))
(let ((.def_430 (and .def_66 .def_429)))
(let ((.def_422 (and .s.4 .def_158)))
(let ((.def_423 (and .def_23 .def_422)))
(let ((.def_424 (not .def_423)))
(let ((.def_431 (or .def_424 .def_430)))
(let ((.def_765 (and .def_431 .def_764)))
(let ((.def_403 (and .s.4 .def_142)))
(let ((.def_404 (and .def_23 .def_403)))
(let ((.def_419 (and .def_404 .def_405)))
(let ((.def_420 (not .def_419)))
(let ((.def_148 (and .s.4.next .def_147)))
(let ((.def_149 (and .def_76 .def_148)))
(let ((.def_150 (and .def_46 .def_149)))
(let ((.def_151 (and .def_50 .def_150)))
(let ((.def_152 (and .def_54 .def_151)))
(let ((.def_153 (and .def_58 .def_152)))
(let ((.def_154 (and .def_62 .def_153)))
(let ((.def_155 (and .def_66 .def_154)))
(let ((.def_421 (or .def_155 .def_420)))
(let ((.def_766 (and .def_421 .def_765)))
(let ((.def_410 (and .s.4.next .def_409)))
(let ((.def_411 (and .def_76 .def_410)))
(let ((.def_412 (and .def_46 .def_411)))
(let ((.def_413 (and .def_50 .def_412)))
(let ((.def_414 (and .def_54 .def_413)))
(let ((.def_415 (and .def_58 .def_414)))
(let ((.def_416 (and .def_62 .def_415)))
(let ((.def_417 (and .def_66 .def_416)))
(let ((.def_407 (and .def_404 .def_406)))
(let ((.def_408 (not .def_407)))
(let ((.def_418 (or .def_408 .def_417)))
(let ((.def_767 (and .def_418 .def_766)))
(let ((.def_395 (= main.j.next 0)))
(let ((.def_343 (and .s.4.next .def_127)))
(let ((.def_344 (and .def_76 .def_343)))
(let ((.def_396 (and .def_344 .def_395)))
(let ((.def_397 (and .def_46 .def_396)))
(let ((.def_398 (and .def_54 .def_397)))
(let ((.def_399 (and .def_58 .def_398)))
(let ((.def_400 (and .def_62 .def_399)))
(let ((.def_401 (and .def_66 .def_400)))
(let ((.def_392 (and .s.4 .def_110)))
(let ((.def_393 (and .def_23 .def_392)))
(let ((.def_394 (not .def_393)))
(let ((.def_402 (or .def_394 .def_401)))
(let ((.def_768 (and .def_402 .def_767)))
(let ((.def_383 (and .s.4.next .def_382)))
(let ((.def_384 (and .def_76 .def_383)))
(let ((.def_385 (and .def_46 .def_384)))
(let ((.def_386 (and .def_50 .def_385)))
(let ((.def_387 (and .def_54 .def_386)))
(let ((.def_388 (and .def_58 .def_387)))
(let ((.def_389 (and .def_62 .def_388)))
(let ((.def_390 (and .def_66 .def_389)))
(let ((.def_367 (<= 0 .def_121)))
(let ((.def_365 (and .s.4 .def_92)))
(let ((.def_366 (and .def_23 .def_365)))
(let ((.def_380 (and .def_366 .def_367)))
(let ((.def_381 (not .def_380)))
(let ((.def_391 (or .def_381 .def_390)))
(let ((.def_769 (and .def_391 .def_768)))
(let ((.def_371 (and .s.4.next .def_98)))
(let ((.def_372 (and .def_76 .def_371)))
(let ((.def_373 (and .def_46 .def_372)))
(let ((.def_374 (and .def_50 .def_373)))
(let ((.def_375 (and .def_54 .def_374)))
(let ((.def_376 (and .def_58 .def_375)))
(let ((.def_377 (and .def_62 .def_376)))
(let ((.def_378 (and .def_66 .def_377)))
(let ((.def_368 (not .def_367)))
(let ((.def_369 (and .def_366 .def_368)))
(let ((.def_370 (not .def_369)))
(let ((.def_379 (or .def_370 .def_378)))
(let ((.def_770 (and .def_379 .def_769)))
(let ((.def_355 (and .def_38 .s.4.next)))
(let ((.def_356 (and .def_76 .def_355)))
(let ((.def_358 (and .def_356 .def_357)))
(let ((.def_359 (and .def_46 .def_358)))
(let ((.def_360 (and .def_54 .def_359)))
(let ((.def_361 (and .def_58 .def_360)))
(let ((.def_362 (and .def_62 .def_361)))
(let ((.def_363 (and .def_66 .def_362)))
(let ((.def_352 (and .s.4 .def_72)))
(let ((.def_353 (and .def_23 .def_352)))
(let ((.def_354 (not .def_353)))
(let ((.def_364 (or .def_354 .def_363)))
(let ((.def_771 (and .def_364 .def_770)))
(let ((.def_345 (and .def_46 .def_344)))
(let ((.def_346 (and .def_50 .def_345)))
(let ((.def_347 (and .def_54 .def_346)))
(let ((.def_348 (and .def_58 .def_347)))
(let ((.def_349 (and .def_62 .def_348)))
(let ((.def_350 (and .def_66 .def_349)))
(let ((.def_340 (and .s.4 .def_27)))
(let ((.def_341 (and .def_23 .def_340)))
(let ((.def_342 (not .def_341)))
(let ((.def_351 (or .def_342 .def_350)))
(let ((.def_772 (and .def_351 .def_771)))
(let ((.def_331 (and .s.4.next .def_330)))
(let ((.def_332 (and .def_76 .def_331)))
(let ((.def_333 (and .def_199 .def_332)))
(let ((.def_334 (and .def_46 .def_333)))
(let ((.def_335 (and .def_50 .def_334)))
(let ((.def_336 (and .def_54 .def_335)))
(let ((.def_337 (and .def_62 .def_336)))
(let ((.def_338 (and .def_66 .def_337)))
(let ((.def_327 (and .s.4 .def_326)))
(let ((.def_328 (and .def_23 .def_327)))
(let ((.def_329 (not .def_328)))
(let ((.def_339 (or .def_329 .def_338)))
(let ((.def_773 (and .def_339 .def_772)))
(let ((.def_319 (and .def_46 .def_318)))
(let ((.def_320 (and .def_50 .def_319)))
(let ((.def_321 (and .def_54 .def_320)))
(let ((.def_322 (and .def_58 .def_321)))
(let ((.def_323 (and .def_62 .def_322)))
(let ((.def_324 (and .def_66 .def_323)))
(let ((.def_314 (and .s.4 .def_313)))
(let ((.def_315 (and .def_23 .def_314)))
(let ((.def_316 (not .def_315)))
(let ((.def_325 (or .def_316 .def_324)))
(let ((.def_774 (and .def_325 .def_773)))
(let ((.def_301 (and .s.4.next .def_300)))
(let ((.def_302 (and .def_76 .def_301)))
(let ((.def_306 (and .def_302 .def_305)))
(let ((.def_307 (and .def_50 .def_306)))
(let ((.def_308 (and .def_54 .def_307)))
(let ((.def_309 (and .def_58 .def_308)))
(let ((.def_310 (and .def_62 .def_309)))
(let ((.def_311 (and .def_66 .def_310)))
(let ((.def_297 (and .s.4 .def_296)))
(let ((.def_298 (and .def_23 .def_297)))
(let ((.def_299 (not .def_298)))
(let ((.def_312 (or .def_299 .def_311)))
(let ((.def_775 (and .def_312 .def_774)))
(let ((.def_289 (and .def_46 .def_288)))
(let ((.def_290 (and .def_50 .def_289)))
(let ((.def_291 (and .def_54 .def_290)))
(let ((.def_292 (and .def_58 .def_291)))
(let ((.def_293 (and .def_62 .def_292)))
(let ((.def_294 (and .def_66 .def_293)))
(let ((.def_285 (and .s.4 .def_284)))
(let ((.def_286 (and .def_23 .def_285)))
(let ((.def_287 (not .def_286)))
(let ((.def_295 (or .def_287 .def_294)))
(let ((.def_776 (and .def_295 .def_775)))
(let ((.def_267 (<= main.k main.n)))
(let ((.def_266 (and .s.5 .def_265)))
(let ((.def_281 (and .def_266 .def_267)))
(let ((.def_282 (not .def_281)))
(let ((.def_165 (and .s.5.next .def_164)))
(let ((.def_166 (and .def_46 .def_165)))
(let ((.def_167 (and .def_50 .def_166)))
(let ((.def_168 (and .def_54 .def_167)))
(let ((.def_169 (and .def_58 .def_168)))
(let ((.def_170 (and .def_62 .def_169)))
(let ((.def_171 (and .def_66 .def_170)))
(let ((.def_283 (or .def_171 .def_282)))
(let ((.def_777 (and .def_283 .def_776)))
(let ((.def_272 (and .def_40 .def_271)))
(let ((.def_273 (and .s.5.next .def_272)))
(let ((.def_274 (and .def_46 .def_273)))
(let ((.def_275 (and .def_50 .def_274)))
(let ((.def_276 (and .def_54 .def_275)))
(let ((.def_277 (and .def_58 .def_276)))
(let ((.def_278 (and .def_62 .def_277)))
(let ((.def_279 (and .def_66 .def_278)))
(let ((.def_268 (not .def_267)))
(let ((.def_269 (and .def_266 .def_268)))
(let ((.def_270 (not .def_269)))
(let ((.def_280 (or .def_270 .def_279)))
(let ((.def_778 (and .def_280 .def_777)))
(let ((.def_180 (and .s.5.next .def_179)))
(let ((.def_257 (and .def_180 .def_256)))
(let ((.def_258 (and .def_46 .def_257)))
(let ((.def_259 (and .def_50 .def_258)))
(let ((.def_260 (and .def_54 .def_259)))
(let ((.def_261 (and .def_62 .def_260)))
(let ((.def_262 (and .def_66 .def_261)))
(let ((.def_254 (and .def_21 .s.5)))
(let ((.def_255 (not .def_254)))
(let ((.def_263 (or .def_255 .def_262)))
(let ((.def_779 (and .def_263 .def_778)))
(let ((.def_246 (and .s.5.next .def_245)))
(let ((.def_247 (and .def_46 .def_246)))
(let ((.def_248 (and .def_50 .def_247)))
(let ((.def_249 (and .def_54 .def_248)))
(let ((.def_250 (and .def_58 .def_249)))
(let ((.def_251 (and .def_62 .def_250)))
(let ((.def_252 (and .def_66 .def_251)))
(let ((.def_227 (and .s.5 .def_226)))
(let ((.def_242 (and .def_227 .def_241)))
(let ((.def_243 (not .def_242)))
(let ((.def_253 (or .def_243 .def_252)))
(let ((.def_780 (and .def_253 .def_779)))
(let ((.def_233 (and .s.5.next .def_232)))
(let ((.def_234 (and .def_46 .def_233)))
(let ((.def_235 (and .def_50 .def_234)))
(let ((.def_236 (and .def_54 .def_235)))
(let ((.def_237 (and .def_58 .def_236)))
(let ((.def_238 (and .def_62 .def_237)))
(let ((.def_239 (and .def_66 .def_238)))
(let ((.def_229 (and .def_227 .def_228)))
(let ((.def_230 (not .def_229)))
(let ((.def_240 (or .def_230 .def_239)))
(let ((.def_781 (and .def_240 .def_780)))
(let ((.def_217 (and .s.5.next .def_216)))
(let ((.def_213 (= .def_212 1)))
(let ((.def_218 (and .def_213 .def_217)))
(let ((.def_219 (and .def_46 .def_218)))
(let ((.def_220 (and .def_54 .def_219)))
(let ((.def_221 (and .def_58 .def_220)))
(let ((.def_222 (and .def_62 .def_221)))
(let ((.def_223 (and .def_66 .def_222)))
(let ((.def_209 (and .s.5 .def_208)))
(let ((.def_210 (not .def_209)))
(let ((.def_224 (or .def_210 .def_223)))
(let ((.def_782 (and .def_224 .def_781)))
(let ((.def_196 (and .s.5.next .def_195)))
(let ((.def_200 (and .def_196 .def_199)))
(let ((.def_201 (and .def_46 .def_200)))
(let ((.def_202 (and .def_50 .def_201)))
(let ((.def_203 (and .def_54 .def_202)))
(let ((.def_204 (and .def_62 .def_203)))
(let ((.def_205 (and .def_66 .def_204)))
(let ((.def_191 (and .s.5 .def_190)))
(let ((.def_192 (not .def_191)))
(let ((.def_206 (or .def_192 .def_205)))
(let ((.def_783 (and .def_206 .def_782)))
(let ((.def_181 (and .def_46 .def_180)))
(let ((.def_182 (and .def_50 .def_181)))
(let ((.def_183 (and .def_54 .def_182)))
(let ((.def_184 (and .def_58 .def_183)))
(let ((.def_185 (and .def_62 .def_184)))
(let ((.def_186 (and .def_66 .def_185)))
(let ((.def_176 (and .s.5 .def_175)))
(let ((.def_177 (not .def_176)))
(let ((.def_187 (or .def_177 .def_186)))
(let ((.def_784 (and .def_187 .def_783)))
(let ((.def_160 (and .s.5 .def_159)))
(let ((.def_161 (not .def_160)))
(let ((.def_172 (or .def_161 .def_171)))
(let ((.def_785 (and .def_172 .def_784)))
(let ((.def_144 (and .s.5 .def_143)))
(let ((.def_145 (not .def_144)))
(let ((.def_156 (or .def_145 .def_155)))
(let ((.def_786 (and .def_156 .def_785)))
(let ((.def_112 (and .s.5 .def_111)))
(let ((.def_138 (and .def_112 .def_137)))
(let ((.def_139 (not .def_138)))
(let ((.def_43 (and .def_41 .s.5.next)))
(let ((.def_47 (and .def_43 .def_46)))
(let ((.def_51 (and .def_47 .def_50)))
(let ((.def_55 (and .def_51 .def_54)))
(let ((.def_59 (and .def_55 .def_58)))
(let ((.def_63 (and .def_59 .def_62)))
(let ((.def_67 (and .def_63 .def_66)))
(let ((.def_140 (or .def_67 .def_139)))
(let ((.def_787 (and .def_140 .def_786)))
(let ((.def_129 (and .s.5.next .def_128)))
(let ((.def_130 (and .def_46 .def_129)))
(let ((.def_131 (and .def_50 .def_130)))
(let ((.def_132 (and .def_54 .def_131)))
(let ((.def_133 (and .def_58 .def_132)))
(let ((.def_134 (and .def_62 .def_133)))
(let ((.def_135 (and .def_66 .def_134)))
(let ((.def_123 (and .def_112 .def_122)))
(let ((.def_124 (not .def_123)))
(let ((.def_136 (or .def_124 .def_135)))
(let ((.def_788 (and .def_136 .def_787)))
(let ((.def_100 (and .s.5.next .def_99)))
(let ((.def_101 (and .def_46 .def_100)))
(let ((.def_102 (and .def_50 .def_101)))
(let ((.def_103 (and .def_54 .def_102)))
(let ((.def_104 (and .def_58 .def_103)))
(let ((.def_105 (and .def_62 .def_104)))
(let ((.def_106 (and .def_66 .def_105)))
(let ((.def_94 (and .s.5 .def_93)))
(let ((.def_95 (not .def_94)))
(let ((.def_107 (or .def_95 .def_106)))
(let ((.def_789 (and .def_107 .def_788)))
(let ((.def_74 (and .s.5 .def_73)))
(let ((.def_75 (not .def_74)))
(let ((.def_91 (or .def_75 .def_90)))
(let ((.def_790 (and .def_91 .def_789)))
(let ((.def_29 (and .s.5 .def_28)))
(let ((.def_30 (not .def_29)))
(let ((.def_68 (or .def_30 .def_67)))
(let ((.def_791 (and .def_68 .def_790)))
.def_791))))))))))))))))))))))))))))))))))))))))))))))))))))))))))))))))))))))))))))))))))))))))))))))))))))))))))))))))))))))))))))))))))))))))))))))))))))))))))))))))))))))))))))))))))))))))))))))))))))))))))))))))))))))))))))))))))))))))))))))))))))))))))))))))))))))))))))))))))))))))))))))))))))))))))))))))))))))))))))))))))))))))))))))))))))))))))))))))))))))))))))))))))))))))))))))))))))))))))))))))))))))))))))))))))))))))))))))))))))))))))))))))))))))))))))))))))))))))))))))))))))))))))))))))))))))))))))))))))))))))))))))))))))))))))))))))))))))))))))))))))))))))))))))))))))))))))))))))))))))))))))))))))))))))))))))))))))))))))))))))))))))))))))))))))))))))))))))))))))))))))))))))))))))))))))))))))))))))))))))))))))))))))))))))))))))))))))))))) (state |.s.1.next| |.s.0.next| |.s.2.next| |.s.3.next| |.s.4.next| |.s.5.next| |main.i.next| |main.j.next| |main.k.next| |main.l.next| |main.m.next| |main.n.next|))))
(assert (forall ((|.s.3| Bool) (|.s.4| Bool) (|.s.2| Bool) (|.s.0| Bool) (|.s.1| Bool) (|.s.0.next| Bool) (|.s.1.next| Bool) (|.s.2.next| Bool) (|.s.3.next| Bool) (|.s.4.next| Bool) (|.s.5.next| Bool) (|main.i.next| Int) (|main.i| Int) (|main.j.next| Int) (|main.j| Int) (|main.k.next| Int) (|main.k| Int) (|main.l.next| Int) (|main.l| Int) (|main.m.next| Int) (|main.m| Int) (|main.n.next| Int) (|main.n| Int) (|.inputVar.0| Int) (|.s.5| Bool)) (=> (state |.s.1| |.s.0| |.s.2| |.s.3| |.s.4| |.s.5| |main.i| |main.j| |main.k| |main.l| |main.m| |main.n|) (let ((.def_25 (and .s.1 .s.0)))
(let ((.def_14 (not .s.2)))
(let ((.def_26 (and .def_14 .def_25)))
(let ((.def_27 (and .s.3 .def_26)))
(let ((.def_20 (not .s.4)))
(let ((.def_28 (and .def_20 .def_27)))
(let ((.def_29 (and .s.5 .def_28)))
(let ((.def_30 (not .def_29)))
.def_30)))))))))))
(check-sat)
